dim_signal = 100;
dim_measurement = 30;
K = 71;

x0 = [0         , 0         , 0         , -0.087, 0.367, 1.559, -2.514, 1.024,
 -0.838, 0         , 0.136, -0.379, -1.178, 1.096, 0         , 0         ,
 -0.657, -0.630, 0.783, 0         , 1.021, 0         , -0.450, -1.349,
 0.835, 0.165, 0         , 0         , 0.633, 0         , 0.385,
 0         , 0.033, -0.153, 0.811, 0         , 0         , 0.683,
 0         , -0.451, -1.243, 0         , 0.626, -0.092, -0.231, 1.197,
 -0.116, 0         , -2.706, 0.569, -0.612, -0.037, 0.803, 0.704, 1.680,
 -0.498, -1.165, -0.645, 0.013, 1.786, -1.880, 0.148, 0         , -1.332,
 -0.377, 0.823, 0         , 0         , -0.035, -0.283, 0.966, -0.340,
 -0.008, 0         , 1.297, -0.726, 0.684, 0         , 0.547, 0         ,
 -0.070, -0.182, 0         , 0         , -0.274, 1.011, 0         ,
 0         , 0         , -0.154, -1.063, 1.063, 0.985, -1.007, 0.975,
 0.888, -0.385, -0.545, 0         , 1.114];
y  = [0.910, -0.274, 1.250, -0.182, -0.038, -0.138, -0.653, 0.481, 0.366,
 -1.002, 1.088, -0.525, -0.074, 0.736, 0.658, 1.829, 0.068, 0.311, -0.311,
 -0.807, 0.411, 1.008, 0.421, 0.040, -0.261, -1.705, 2.201, -0.681, 1.002,
 -1.521];

A = [| 0.063, 0.014, -0.101, -0.119, -0.002, -0.051, -0.064, 0.009, -0.024, 0.029, -0.149, -0.005, -0.179, -0.029, -0.080, 0.089, -0.157, -0.037, -0.039, -0.012, 0.134, -0.199, -0.089, -0.025, -0.008, -0.180, 0.101, -0.271, -0.036, -0.045, 0.182, -0.049, -0.023, -0.005, -0.037, 0.097, -0.039, -0.057, -0.106, 0.082, 0.061, -0.038, 0.053, 0.016, 0.214, 0.088, -0.034, -0.068, 0.108, -0.063, 0.045, -0.113, -0.112, -0.007, -0.043, -0.215, 0.146, -0.169, 0.064, 0.286, 0.033, 0.085, 0.091, 0.113, -0.053, 0.151, 0.066, 0.058, 0.088, -0.157, 0.113, -0.058, -0.036, -0.123, -0.031, 0.179, 0.017, -0.055, 0.081, -0.181, 0.013, -0.147, -0.102, -0.077, -0.186, 0.017, -0.067, 0.106, -0.129, 0.111, -0.079, 0.000, 0.007, -0.023, -0.019, 0.144, -0.157, -0.058, -0.118, -0.029
     | -0.107, -0.156, -0.048, -0.258, -0.073, -0.077, 0.023, -0.055, -0.124, -0.151, 0.141, 0.025, -0.102, 0.005, -0.144, 0.048, 0.078, 0.020, -0.126, 0.012, -0.024, 0.019, 0.133, 0.109, 0.043, 0.053, -0.102, -0.011, -0.150, 0.007, 0.171, 0.048, -0.050, -0.062, -0.148, 0.014, -0.069, -0.016, -0.091, 0.012, 0.080, -0.011, -0.017, -0.213, 0.269, 0.156, 0.025, 0.119, 0.067, 0.016, -0.020, -0.156, -0.195, 0.043, 0.167, 0.038, 0.036, -0.153, 0.062, 0.086, 0.055, -0.081, -0.187, 0.017, 0.103, -0.020, -0.060, -0.104, -0.050, 0.100, 0.016, -0.061, -0.080, -0.127, -0.020, -0.065, -0.006, -0.222, -0.018, 0.054, -0.033, 0.035, -0.040, -0.006, 0.006, -0.016, -0.217, -0.059, 0.044, 0.039, -0.054, -0.045, -0.112, -0.152, 0.137, -0.084, 0.081, -0.060, -0.104, 0.089
     | -0.029, 0.073, -0.040, -0.026, 0.004, 0.112, -0.072, -0.059, -0.049, -0.044, 0.042, 0.077, -0.038, 0.001, 0.052, 0.103, 0.078, 0.046, -0.062, -0.106, 0.074, -0.087, -0.111, 0.064, -0.100, 0.085, -0.029, 0.136, 0.001, -0.061, -0.147, -0.077, 0.192, 0.048, 0.286, -0.020, -0.013, 0.085, 0.041, -0.164, -0.017, 0.016, -0.260, 0.136, 0.050, 0.142, 0.044, -0.056, -0.032, 0.030, -0.019, 0.006, 0.089, 0.076, -0.066, -0.050, -0.101, 0.140, -0.095, 0.090, 0.001, 0.139, 0.150, -0.160, 0.035, 0.080, 0.024, 0.016, 0.037, -0.018, 0.028, -0.141, 0.064, 0.099, -0.048, -0.104, -0.091, -0.094, 0.028, 0.096, 0.084, 0.181, 0.077, -0.062, 0.091, -0.004, -0.064, 0.109, 0.029, 0.100, -0.057, -0.040, 0.000, -0.013, 0.138, 0.018, 0.088, 0.041, -0.064, 0.023
     | 0.038, 0.004, 0.024, -0.087, 0.057, -0.223, -0.019, 0.059, -0.119, -0.075, -0.109, 0.139, -0.094, 0.065, 0.065, -0.030, -0.026, -0.061, -0.004, -0.106, 0.056, -0.050, 0.042, 0.047, -0.058, -0.128, -0.070, 0.001, -0.138, -0.070, 0.021, 0.240, 0.046, 0.249, 0.074, -0.027, 0.118, 0.097, 0.065, 0.067, 0.069, -0.169, -0.050, -0.153, 0.007, -0.079, -0.258, -0.043, -0.094, 0.162, 0.229, -0.066, 0.087, -0.184, 0.192, 0.130, 0.121, -0.019, 0.022, 0.084, 0.080, 0.085, -0.010, 0.037, 0.144, -0.054, -0.059, -0.020, -0.050, -0.063, 0.006, 0.250, -0.051, 0.114, -0.164, 0.070, 0.071, 0.122, -0.183, -0.062, 0.029, -0.092, -0.080, 0.177, -0.127, 0.037, -0.086, 0.015, 0.079, -0.107, -0.236, -0.102, 0.070, -0.099, -0.153, 0.017, -0.079, 0.203, -0.023, 0.071
     | -0.135, 0.125, -0.024, -0.010, -0.091, 0.081, -0.082, -0.005, -0.090, 0.174, 0.047, -0.092, -0.135, -0.027, -0.120, 0.130, 0.063, 0.011, -0.158, 0.013, 0.003, 0.021, 0.068, -0.091, 0.042, -0.167, 0.009, 0.008, 0.115, 0.007, -0.095, 0.125, 0.055, 0.072, 0.038, 0.070, -0.226, 0.059, 0.039, -0.072, 0.067, 0.064, 0.067, 0.037, -0.024, 0.020, 0.047, -0.092, 0.050, 0.081, 0.063, 0.069, -0.062, 0.097, -0.143, -0.042, -0.002, 0.045, 0.131, 0.054, -0.114, 0.013, 0.004, 0.024, 0.205, -0.099, -0.092, -0.034, 0.001, -0.060, -0.085, 0.032, -0.165, -0.079, -0.141, 0.028, 0.098, 0.019, 0.059, 0.010, 0.177, -0.025, -0.001, 0.014, 0.194, -0.094, -0.085, 0.202, 0.060, -0.098, 0.077, 0.124, 0.038, 0.011, -0.011, -0.116, 0.079, -0.010, -0.133, -0.003
     | 0.053, -0.118, 0.031, 0.103, -0.021, 0.124, -0.120, 0.078, -0.037, -0.079, -0.075, 0.054, 0.007, -0.154, -0.106, -0.063, 0.105, -0.022, 0.077, -0.024, -0.071, 0.042, 0.183, 0.023, 0.076, -0.040, -0.031, -0.089, -0.107, 0.078, -0.104, -0.141, -0.210, 0.116, 0.033, -0.087, 0.018, -0.045, 0.043, -0.105, -0.074, -0.026, 0.013, 0.075, -0.013, 0.093, 0.052, 0.100, 0.049, -0.113, -0.008, -0.032, 0.031, 0.067, -0.055, 0.088, -0.176, -0.142, -0.161, -0.031, -0.044, -0.093, 0.038, 0.049, -0.083, -0.063, -0.027, 0.001, 0.024, -0.089, -0.023, -0.007, 0.017, -0.058, -0.201, -0.069, -0.172, 0.168, 0.199, -0.040, 0.052, -0.127, 0.061, 0.017, 0.110, 0.038, 0.072, -0.203, 0.154, 0.037, 0.065, -0.053, 0.058, -0.030, -0.179, 0.009, -0.037, 0.121, -0.012, -0.022
     | -0.062, 0.162, 0.026, -0.167, -0.169, -0.111, -0.046, 0.001, -0.019, -0.106, -0.020, -0.062, 0.115, -0.025, 0.077, 0.143, 0.084, -0.045, 0.047, -0.106, 0.122, -0.018, 0.001, -0.204, 0.016, 0.050, 0.123, 0.037, -0.068, 0.003, -0.035, -0.089, -0.067, -0.051, 0.005, 0.024, -0.144, 0.024, 0.145, 0.043, 0.035, -0.020, 0.045, 0.039, 0.066, -0.111, 0.033, 0.083, -0.001, 0.019, -0.130, -0.108, 0.211, -0.076, -0.033, -0.095, -0.023, 0.011, -0.031, -0.279, 0.050, -0.084, -0.024, -0.072, -0.080, 0.165, 0.037, -0.081, -0.039, -0.056, -0.121, -0.001, 0.017, -0.008, 0.027, 0.017, -0.082, -0.249, 0.125, -0.105, 0.075, -0.015, -0.062, -0.162, -0.020, -0.187, 0.138, 0.038, 0.265, -0.023, 0.145, -0.070, -0.073, -0.080, 0.034, 0.014, 0.083, -0.029, 0.056, -0.069
     | 0.242, 0.163, 0.073, -0.031, 0.072, 0.052, -0.176, -0.056, -0.013, -0.035, -0.058, -0.044, 0.055, -0.011, 0.157, -0.025, 0.085, -0.053, -0.095, -0.101, -0.195, 0.100, 0.074, -0.123, 0.228, 0.201, -0.214, -0.100, 0.062, -0.199, 0.122, -0.104, -0.048, 0.142, 0.092, 0.043, 0.035, -0.012, 0.095, -0.066, -0.106, 0.140, -0.141, -0.004, -0.106, -0.070, -0.019, 0.090, 0.011, -0.001, 0.009, -0.065, -0.072, 0.167, -0.153, 0.139, -0.150, -0.066, 0.061, 0.143, -0.026, 0.126, -0.030, 0.132, -0.040, 0.103, 0.023, 0.023, -0.141, -0.039, 0.028, -0.086, 0.156, 0.188, 0.011, 0.144, -0.001, 0.086, -0.050, 0.022, 0.139, -0.132, 0.111, 0.041, -0.051, -0.056, 0.164, -0.047, -0.162, 0.070, -0.002, -0.146, -0.015, -0.017, -0.054, 0.081, 0.195, 0.077, 0.040, 0.003
     | -0.031, 0.158, -0.020, -0.060, 0.013, 0.012, 0.011, 0.063, 0.024, 0.025, -0.069, -0.020, 0.027, 0.149, 0.023, -0.007, -0.138, -0.082, -0.077, -0.047, -0.001, -0.085, 0.098, -0.089, -0.173, -0.158, -0.037, -0.005, -0.027, 0.044, -0.021, 0.031, -0.044, -0.033, -0.060, -0.153, 0.084, -0.121, -0.024, 0.004, -0.009, -0.019, -0.099, -0.120, 0.085, 0.026, 0.147, -0.010, 0.029, 0.127, 0.202, 0.082, 0.001, 0.003, 0.077, -0.084, -0.177, 0.057, -0.051, 0.002, -0.095, -0.002, 0.001, -0.088, 0.067, -0.177, 0.131, -0.173, -0.043, 0.018, -0.087, -0.006, 0.066, 0.163, 0.003, -0.172, -0.070, 0.065, 0.043, 0.013, 0.066, 0.117, 0.044, -0.074, 0.235, 0.152, -0.123, -0.079, -0.175, -0.011, 0.049, 0.019, -0.150, -0.013, 0.079, 0.064, 0.010, 0.012, -0.070, 0.024
     | 0.151, 0.057, -0.012, 0.087, -0.026, 0.072, 0.152, 0.049, 0.109, 0.042, 0.070, -0.075, 0.085, -0.027, -0.005, 0.134, -0.008, -0.023, -0.034, -0.142, -0.050, 0.098, -0.049, -0.102, -0.158, -0.117, 0.011, 0.193, 0.051, 0.057, 0.149, -0.062, -0.099, 0.049, -0.063, -0.140, -0.007, 0.304, 0.032, 0.028, -0.049, -0.077, -0.084, -0.010, -0.139, -0.152, -0.003, -0.138, 0.011, 0.224, -0.052, 0.146, -0.001, 0.003, -0.098, 0.066, -0.058, 0.071, 0.095, 0.064, 0.020, -0.238, 0.104, -0.005, 0.047, 0.067, -0.032, 0.038, 0.042, 0.024, 0.076, 0.098, -0.004, 0.112, -0.117, 0.044, 0.020, 0.051, -0.120, -0.024, -0.031, -0.028, -0.142, -0.013, -0.025, -0.142, 0.005, 0.017, -0.018, 0.127, 0.095, -0.040, 0.173, 0.129, -0.078, -0.122, 0.123, 0.068, -0.119, 0.062
     | 0.017, -0.053, -0.043, 0.017, -0.075, -0.092, -0.085, 0.037, -0.033, 0.150, 0.081, 0.159, -0.066, 0.009, 0.128, -0.131, 0.004, -0.102, -0.003, 0.211, -0.162, -0.064, 0.283, -0.013, -0.081, 0.120, -0.127, 0.032, 0.156, -0.083, 0.095, -0.001, -0.106, 0.004, -0.082, 0.129, 0.013, 0.018, 0.060, -0.071, -0.012, -0.041, 0.131, -0.009, -0.008, -0.065, 0.096, -0.091, -0.098, 0.021, 0.034, 0.039, 0.136, 0.052, -0.133, 0.004, -0.198, 0.057, -0.081, 0.116, -0.084, 0.073, 0.047, -0.087, 0.040, 0.067, -0.031, -0.175, -0.127, 0.231, 0.112, -0.049, 0.121, 0.062, 0.165, -0.067, -0.054, 0.093, -0.215, 0.080, -0.097, -0.116, -0.006, 0.023, -0.027, 0.011, 0.053, 0.109, 0.121, 0.046, 0.081, 0.045, 0.235, -0.001, 0.006, -0.121, 0.119, -0.081, 0.045, -0.102
     | 0.025, 0.171, 0.053, -0.123, 0.063, -0.131, -0.150, -0.030, 0.050, -0.129, -0.071, -0.062, -0.098, -0.136, -0.035, -0.006, 0.056, 0.031, 0.022, -0.120, 0.170, -0.006, -0.024, 0.010, -0.034, 0.093, -0.107, 0.106, -0.055, -0.038, -0.003, -0.031, 0.046, 0.026, 0.004, 0.034, 0.019, 0.004, -0.033, 0.189, -0.097, -0.125, -0.032, -0.136, -0.012, 0.051, -0.018, -0.007, 0.007, -0.061, 0.001, -0.127, -0.079, 0.038, -0.007, 0.134, 0.010, 0.214, 0.022, -0.228, -0.120, -0.063, -0.076, 0.156, -0.048, 0.148, 0.085, -0.046, -0.114, 0.098, 0.009, -0.131, 0.222, -0.060, 0.013, 0.008, 0.212, -0.022, -0.072, 0.155, 0.137, 0.179, -0.101, -0.113, 0.023, -0.230, -0.049, -0.105, -0.058, 0.119, 0.069, -0.101, 0.076, -0.015, 0.061, -0.081, 0.110, -0.041, 0.055, 0.027
     | -0.220, -0.090, -0.093, -0.061, -0.188, 0.021, 0.029, -0.009, 0.061, 0.225, -0.029, 0.062, 0.013, -0.079, 0.041, 0.045, -0.135, -0.093, 0.090, 0.060, 0.048, 0.025, -0.084, 0.083, 0.083, -0.198, -0.180, 0.212, 0.093, 0.053, 0.137, 0.039, -0.122, -0.035, -0.093, -0.145, -0.031, -0.201, 0.050, 0.097, 0.193, 0.125, -0.111, -0.085, -0.037, -0.137, -0.084, 0.093, -0.093, 0.027, 0.049, -0.011, -0.137, 0.005, 0.038, -0.022, -0.007, -0.090, 0.047, 0.037, -0.062, 0.053, -0.146, 0.066, -0.083, -0.109, 0.135, 0.131, 0.114, -0.033, -0.084, 0.051, -0.048, -0.054, 0.014, -0.162, 0.077, -0.027, 0.065, -0.152, 0.056, -0.008, -0.019, 0.009, -0.072, 0.108, 0.020, -0.002, 0.042, 0.002, 0.139, -0.063, 0.128, -0.080, -0.016, -0.064, -0.255, 0.055, -0.080, 0.017
     | 0.121, 0.050, 0.157, -0.102, 0.011, -0.109, -0.019, -0.026, 0.062, 0.018, -0.138, 0.089, 0.076, 0.088, -0.071, -0.048, -0.125, 0.070, 0.087, 0.121, 0.327, 0.054, 0.003, -0.058, 0.017, 0.126, 0.029, 0.037, -0.078, -0.070, 0.206, -0.017, 0.009, -0.033, -0.043, 0.125, -0.127, 0.107, -0.107, 0.207, 0.048, -0.070, -0.145, -0.131, 0.036, -0.172, 0.024, 0.121, -0.119, 0.125, -0.072, 0.091, -0.084, -0.100, 0.078, 0.214, -0.026, -0.032, -0.023, 0.023, -0.076, 0.008, -0.143, -0.010, -0.056, -0.240, -0.040, 0.100, -0.030, -0.074, 0.100, -0.049, 0.022, 0.073, -0.076, -0.033, 0.148, -0.147, 0.069, -0.279, 0.197, 0.048, -0.065, 0.067, 0.002, 0.032, -0.052, 0.117, 0.015, -0.051, 0.046, 0.012, 0.260, -0.012, -0.148, 0.043, -0.023, -0.008, 0.049, 0.037
     | -0.095, 0.045, -0.079, -0.027, 0.005, 0.050, 0.028, -0.231, 0.011, 0.081, 0.004, 0.169, -0.040, -0.123, 0.073, -0.094, 0.170, -0.043, -0.117, 0.032, -0.105, -0.064, 0.055, -0.033, 0.024, -0.171, -0.061, -0.075, -0.318, -0.005, 0.064, -0.091, 0.086, 0.004, 0.184, 0.121, -0.040, 0.161, -0.016, -0.019, -0.035, -0.069, -0.169, -0.030, 0.172, 0.049, -0.070, -0.086, -0.199, 0.076, -0.004, 0.189, -0.027, 0.032, 0.046, -0.100, -0.102, -0.013, 0.138, -0.031, 0.012, 0.121, -0.067, 0.098, 0.065, -0.002, -0.096, 0.002, 0.016, -0.051, -0.160, 0.053, -0.095, -0.030, 0.033, 0.004, -0.068, 0.008, -0.125, 0.030, 0.131, -0.048, -0.148, -0.112, -0.067, 0.179, -0.005, 0.102, -0.002, 0.022, -0.211, 0.094, -0.090, -0.078, -0.004, 0.076, -0.034, -0.042, 0.037, 0.238
     | -0.028, -0.042, 0.133, -0.146, 0.008, 0.088, 0.023, 0.086, -0.123, 0.141, -0.075, 0.069, 0.023, 0.036, 0.055, -0.065, -0.134, 0.027, -0.008, -0.056, -0.113, -0.019, 0.018, -0.018, 0.066, -0.013, 0.037, 0.066, 0.192, 0.014, 0.012, -0.195, 0.106, -0.217, 0.107, 0.176, -0.056, 0.036, -0.104, -0.098, -0.077, -0.071, 0.170, 0.047, -0.059, 0.104, -0.009, -0.158, 0.002, -0.041, 0.236, 0.037, -0.013, -0.052, 0.136, -0.051, -0.268, -0.029, 0.005, 0.031, 0.052, 0.112, 0.009, -0.245, -0.007, -0.012, -0.044, 0.034, -0.031, 0.096, -0.102, -0.002, -0.126, 0.118, 0.060, -0.043, -0.021, -0.028, -0.005, 0.019, 0.056, 0.053, 0.047, 0.015, 0.057, 0.155, -0.047, -0.141, -0.030, 0.002, 0.002, 0.160, -0.018, -0.030, -0.118, -0.064, 0.101, 0.016, -0.109, 0.158
     | 0.078, 0.009, 0.079, 0.070, 0.086, -0.077, -0.086, -0.061, 0.113, 0.102, -0.063, -0.094, -0.122, -0.026, 0.016, 0.083, 0.178, 0.087, -0.042, 0.116, 0.083, 0.052, 0.004, -0.103, 0.045, -0.152, -0.007, -0.070, -0.156, -0.105, -0.002, -0.032, 0.165, -0.055, 0.070, 0.003, -0.016, -0.067, -0.055, -0.105, -0.022, 0.159, -0.041, 0.067, 0.058, 0.049, 0.131, 0.089, -0.079, -0.076, -0.034, -0.004, -0.049, 0.133, -0.150, 0.238, -0.033, 0.050, -0.040, 0.102, 0.166, -0.039, 0.037, -0.135, 0.078, 0.079, 0.058, -0.051, -0.058, 0.047, 0.067, -0.119, -0.071, 0.088, 0.070, 0.113, 0.083, 0.006, -0.034, 0.162, -0.056, -0.015, 0.061, -0.018, 0.077, 0.118, -0.030, -0.050, 0.175, 0.056, 0.164, 0.161, 0.017, 0.172, -0.005, -0.043, 0.109, 0.065, -0.065, 0.014
     | 0.011, 0.159, 0.110, -0.056, -0.122, 0.009, -0.033, 0.099, 0.140, -0.058, -0.092, 0.066, -0.018, -0.101, -0.019, 0.110, -0.053, 0.061, -0.049, -0.004, 0.190, -0.118, -0.098, 0.126, -0.290, -0.088, -0.168, 0.155, -0.060, -0.110, 0.044, 0.065, 0.182, 0.194, 0.088, -0.058, -0.009, 0.123, 0.096, 0.137, -0.073, 0.012, -0.081, 0.041, 0.185, 0.007, 0.048, -0.151, 0.130, -0.041, -0.120, 0.056, -0.063, 0.111, 0.050, 0.043, -0.137, 0.038, -0.190, 0.058, -0.031, -0.069, 0.013, -0.082, 0.089, 0.050, 0.123, -0.119, -0.212, 0.102, 0.029, 0.028, -0.017, 0.025, 0.002, -0.043, 0.022, -0.197, 0.168, 0.032, 0.030, 0.017, -0.004, -0.164, 0.031, 0.015, 0.171, -0.017, 0.052, 0.005, 0.146, 0.013, 0.026, -0.122, 0.119, 0.061, 0.106, -0.067, 0.067, 0.075
     | 0.089, 0.060, -0.116, -0.081, 0.117, 0.058, -0.008, -0.096, 0.045, -0.226, -0.029, 0.046, 0.139, 0.211, 0.027, 0.147, -0.253, -0.104, 0.092, 0.089, 0.002, 0.042, 0.041, -0.079, 0.001, 0.079, 0.159, 0.170, 0.078, 0.186, 0.077, 0.011, 0.123, 0.218, -0.220, 0.035, 0.030, 0.050, -0.112, -0.124, 0.061, 0.080, -0.057, 0.072, -0.023, -0.044, -0.059, 0.116, 0.036, -0.092, -0.004, 0.027, 0.085, -0.162, -0.090, -0.070, 0.029, 0.122, -0.038, -0.165, -0.097, 0.053, 0.056, -0.023, -0.007, 0.156, -0.090, 0.042, 0.002, 0.189, 0.074, 0.031, -0.110, -0.034, 0.066, -0.014, -0.082, 0.024, -0.153, -0.133, 0.069, -0.065, 0.080, -0.022, -0.168, -0.150, -0.007, -0.027, -0.001, 0.048, 0.256, 0.094, 0.090, 0.070, -0.070, -0.146, -0.103, -0.078, 0.093, 0.162
     | -0.097, 0.180, 0.054, 0.045, 0.056, -0.018, 0.070, 0.124, -0.072, -0.083, 0.128, 0.293, -0.058, -0.228, 0.119, -0.051, -0.200, 0.040, -0.093, 0.005, -0.029, -0.097, -0.117, -0.099, -0.041, -0.135, -0.211, 0.050, 0.034, 0.035, 0.169, -0.128, 0.001, -0.072, 0.090, -0.023, -0.198, -0.087, 0.081, 0.030, 0.032, 0.025, -0.075, -0.015, 0.046, -0.198, -0.132, -0.143, -0.110, 0.011, 0.061, 0.008, -0.120, 0.033, -0.139, -0.067, -0.067, -0.018, -0.125, -0.145, 0.185, -0.089, -0.116, 0.040, -0.050, -0.134, 0.224, -0.080, -0.056, -0.092, -0.020, 0.094, 0.056, 0.117, 0.029, -0.131, -0.093, -0.083, -0.015, -0.191, -0.028, -0.073, -0.023, 0.049, 0.025, 0.225, -0.094, 0.025, -0.025, 0.005, -0.047, 0.100, 0.082, 0.262, -0.061, 0.063, -0.016, -0.039, -0.025, -0.026
     | -0.041, 0.018, -0.044, -0.070, -0.196, -0.035, -0.049, 0.159, -0.109, -0.129, -0.051, 0.011, 0.126, -0.061, -0.103, 0.008, 0.230, -0.002, -0.099, 0.080, -0.090, 0.034, -0.146, -0.015, 0.000, 0.111, 0.090, -0.028, -0.131, 0.050, -0.113, -0.171, 0.003, 0.308, -0.066, -0.010, 0.124, -0.070, 0.091, -0.115, -0.063, 0.148, -0.016, 0.041, -0.024, 0.218, -0.082, 0.080, -0.110, 0.035, -0.173, -0.101, -0.092, 0.023, 0.049, -0.169, -0.042, 0.085, 0.043, 0.054, -0.091, 0.050, 0.063, 0.018, 0.070, -0.067, 0.012, -0.019, 0.005, 0.059, 0.015, -0.101, 0.010, -0.001, 0.145, 0.192, 0.045, 0.190, 0.039, 0.060, -0.014, -0.021, -0.027, 0.146, 0.088, -0.082, 0.013, 0.216, 0.070, -0.145, 0.140, -0.061, 0.052, 0.064, 0.056, -0.056, 0.096, -0.111, 0.013, -0.068
     | -0.051, 0.151, 0.051, 0.060, 0.112, 0.062, 0.066, 0.012, 0.026, 0.058, 0.102, -0.222, 0.016, 0.131, -0.094, -0.207, -0.033, 0.084, -0.097, 0.036, 0.003, 0.070, -0.023, -0.033, 0.119, -0.036, -0.095, -0.109, -0.090, -0.081, 0.004, -0.113, 0.030, -0.024, -0.060, -0.049, -0.079, 0.131, 0.016, -0.092, -0.093, -0.070, 0.182, -0.086, 0.029, 0.111, -0.225, 0.060, -0.014, 0.032, 0.042, 0.034, -0.011, 0.060, 0.184, -0.003, -0.000, -0.007, -0.220, -0.055, -0.115, -0.123, 0.187, 0.139, -0.049, -0.052, -0.132, 0.213, -0.040, -0.131, 0.012, 0.015, -0.005, -0.121, -0.063, 0.066, 0.139, -0.037, 0.131, -0.001, 0.063, 0.051, -0.015, -0.034, -0.104, -0.075, 0.054, 0.070, -0.129, -0.001, 0.054, 0.044, 0.108, 0.076, 0.048, 0.045, -0.202, -0.020, 0.017, -0.111
     | 0.030, 0.185, -0.036, 0.003, -0.027, 0.076, -0.197, -0.027, 0.058, -0.065, -0.052, -0.121, -0.055, 0.171, -0.066, -0.024, -0.072, -0.050, -0.089, 0.164, 0.093, 0.022, -0.038, 0.072, 0.099, 0.162, 0.053, -0.194, 0.051, -0.024, -0.046, -0.068, -0.017, 0.050, -0.005, -0.039, -0.015, 0.113, 0.042, -0.054, -0.021, 0.007, 0.062, -0.027, -0.043, -0.078, 0.215, 0.110, 0.054, -0.246, 0.039, -0.024, 0.002, -0.120, 0.109, -0.003, 0.202, 0.008, 0.031, -0.041, 0.033, -0.011, -0.119, 0.052, 0.021, 0.162, -0.031, 0.071, 0.182, 0.035, 0.142, 0.143, 0.055, -0.092, -0.033, -0.062, -0.131, -0.156, 0.140, -0.165, -0.010, -0.066, -0.074, -0.045, 0.022, -0.073, 0.036, -0.217, 0.048, -0.145, 0.056, -0.170, -0.065, 0.038, 0.039, 0.185, 0.006, 0.058, -0.219, 0.083
     | 0.002, -0.126, 0.068, -0.103, 0.176, -0.162, 0.079, -0.067, 0.104, 0.063, 0.187, 0.113, -0.051, 0.098, 0.058, -0.058, -0.002, -0.166, 0.015, -0.017, -0.036, 0.162, -0.055, 0.241, 0.086, 0.045, 0.070, -0.047, 0.191, 0.002, -0.011, 0.022, -0.143, -0.194, 0.096, -0.058, 0.058, 0.043, 0.116, 0.059, 0.052, 0.102, -0.005, 0.064, 0.005, -0.095, 0.007, -0.039, -0.069, -0.054, 0.100, 0.077, -0.023, -0.022, 0.114, -0.084, -0.157, 0.107, -0.025, 0.075, 0.095, -0.029, 0.041, -0.128, -0.001, 0.066, -0.199, -0.062, -0.033, -0.029, 0.002, -0.027, 0.091, -0.057, -0.112, 0.011, -0.126, -0.073, 0.016, 0.005, 0.178, -0.089, -0.012, 0.149, 0.007, -0.049, 0.059, -0.063, 0.054, 0.045, -0.101, 0.033, -0.054, 0.225, 0.170, 0.174, 0.028, -0.033, 0.093, 0.022
     | 0.003, 0.051, 0.082, 0.292, -0.073, 0.066, 0.045, -0.095, 0.085, -0.125, 0.158, -0.026, 0.044, -0.007, 0.005, 0.018, 0.121, 0.143, 0.090, 0.023, -0.048, -0.036, 0.017, -0.196, 0.140, 0.144, 0.136, -0.230, -0.045, -0.031, 0.022, 0.129, 0.244, -0.049, 0.054, 0.050, -0.116, 0.131, 0.027, 0.036, -0.094, 0.009, -0.100, -0.168, -0.183, 0.090, -0.074, -0.036, 0.089, -0.057, -0.149, 0.142, -0.046, 0.003, -0.090, 0.158, 0.031, 0.095, 0.124, 0.043, 0.197, 0.110, -0.118, 0.047, 0.052, 0.047, 0.237, -0.011, -0.050, -0.135, -0.095, -0.182, -0.023, -0.004, -0.126, -0.230, 0.099, 0.138, -0.089, -0.013, 0.130, 0.012, -0.003, 0.188, 0.005, 0.121, 0.002, 0.058, 0.182, -0.160, -0.123, 0.004, 0.028, 0.132, -0.041, 0.074, -0.025, -0.146, 0.272, -0.032
     | 0.013, 0.012, 0.013, 0.098, 0.108, -0.200, 0.180, 0.080, -0.146, -0.025, 0.062, -0.136, 0.132, 0.016, -0.073, 0.012, 0.115, 0.075, -0.175, -0.104, 0.069, 0.013, 0.016, 0.174, 0.081, -0.186, -0.156, 0.128, 0.053, -0.159, -0.067, 0.032, 0.090, 0.037, 0.089, -0.046, -0.129, 0.113, -0.164, -0.121, 0.056, -0.047, 0.082, 0.269, -0.084, 0.057, -0.066, 0.087, -0.057, -0.026, -0.010, 0.102, 0.091, -0.160, 0.028, -0.074, 0.172, 0.111, 0.049, 0.041, 0.168, -0.052, 0.215, 0.032, -0.098, 0.002, 0.063, -0.009, 0.075, -0.076, -0.011, -0.101, -0.087, -0.074, -0.160, 0.109, -0.000, 0.048, 0.076, 0.029, -0.075, -0.111, -0.001, 0.035, -0.030, -0.039, 0.132, 0.046, -0.104, 0.056, 0.047, 0.001, -0.142, -0.039, -0.097, -0.092, 0.003, 0.204, -0.106, 0.026
     | 0.141, -0.057, -0.032, 0.064, 0.057, -0.006, -0.226, -0.035, -0.080, 0.105, 0.049, 0.015, -0.113, 0.103, -0.058, -0.196, 0.005, -0.022, -0.019, -0.054, -0.015, -0.018, 0.023, -0.001, 0.034, 0.009, -0.063, -0.014, 0.013, 0.016, 0.094, -0.069, 0.083, -0.143, 0.062, -0.131, -0.019, -0.178, -0.214, -0.086, -0.054, 0.081, -0.025, 0.177, -0.098, 0.144, -0.089, 0.187, 0.078, -0.021, 0.024, -0.025, -0.046, 0.199, 0.016, 0.086, -0.020, 0.024, -0.121, 0.193, -0.019, -0.102, 0.151, -0.079, 0.038, 0.012, 0.152, 0.186, -0.064, -0.079, 0.092, 0.066, 0.019, -0.095, -0.100, -0.157, 0.106, 0.012, 0.060, 0.143, 0.042, -0.109, -0.068, 0.217, -0.128, -0.065, 0.010, 0.075, 0.174, 0.078, -0.328, -0.001, 0.140, -0.100, 0.086, 0.009, -0.016, -0.123, 0.077, -0.143
     | 0.069, -0.031, 0.062, 0.008, 0.053, 0.032, 0.013, 0.041, -0.009, -0.010, 0.054, -0.074, 0.086, 0.013, -0.081, 0.245, 0.084, -0.007, -0.011, 0.044, -0.246, 0.291, 0.248, -0.042, -0.306, 0.131, -0.052, -0.109, -0.009, -0.051, -0.031, -0.089, 0.037, 0.149, 0.025, 0.083, 0.080, 0.072, 0.046, -0.177, -0.071, -0.069, 0.041, 0.156, 0.015, 0.018, 0.127, -0.043, -0.076, -0.167, 0.048, 0.007, 0.133, -0.075, 0.062, 0.118, 0.009, 0.031, -0.136, -0.032, 0.059, -0.030, -0.007, -0.007, 0.083, -0.002, -0.132, -0.041, 0.132, 0.145, -0.169, 0.060, 0.077, -0.047, 0.035, 0.110, 0.004, 0.001, -0.127, -0.094, -0.004, 0.113, 0.222, -0.001, 0.125, 0.020, -0.197, 0.093, -0.074, 0.018, -0.008, -0.021, 0.064, 0.098, 0.013, -0.009, -0.029, -0.034, 0.150, 0.090
     | -0.095, -0.091, 0.031, 0.048, -0.086, 0.193, -0.042, 0.076, 0.165, 0.096, 0.034, -0.166, 0.046, -0.037, -0.016, 0.117, 0.046, 0.224, 0.052, -0.155, -0.038, -0.127, 0.091, -0.127, -0.215, -0.052, -0.099, 0.155, 0.001, -0.057, 0.129, 0.142, 0.075, 0.092, -0.124, -0.038, 0.008, 0.191, 0.032, -0.137, -0.053, -0.082, 0.055, -0.156, -0.040, 0.047, 0.185, 0.041, -0.052, -0.003, 0.225, -0.063, -0.109, 0.056, 0.062, 0.010, 0.048, 0.129, -0.088, 0.084, -0.041, 0.032, -0.009, -0.066, 0.111, -0.062, 0.092, 0.058, -0.115, 0.076, 0.183, -0.074, -0.015, -0.166, 0.032, -0.053, -0.038, 0.098, 0.087, -0.083, -0.091, -0.175, -0.039, 0.146, 0.019, 0.079, -0.159, 0.155, -0.053, 0.113, 0.013, 0.090, -0.027, -0.094, -0.216, 0.059, 0.086, -0.027, 0.058, 0.143
     | 0.035, 0.119, -0.128, 0.017, -0.104, -0.104, 0.114, -0.027, -0.170, 0.061, -0.048, -0.160, 0.090, 0.018, -0.080, -0.013, 0.020, 0.032, -0.045, 0.166, 0.039, -0.196, 0.040, 0.073, 0.070, 0.004, 0.038, -0.173, 0.095, -0.004, 0.103, 0.045, -0.004, -0.115, -0.179, 0.030, -0.009, -0.052, -0.083, 0.042, 0.057, 0.007, -0.174, 0.093, 0.068, -0.050, -0.052, 0.037, 0.159, -0.034, 0.000, -0.048, -0.049, -0.165, 0.226, -0.065, 0.043, 0.053, 0.022, -0.020, 0.171, 0.105, -0.060, -0.103, 0.127, 0.128, -0.094, -0.089, 0.043, 0.056, 0.069, -0.060, 0.000, 0.158, 0.029, 0.200, -0.126, 0.066, -0.104, 0.053, 0.022, -0.046, 0.029, -0.029, 0.077, 0.047, -0.075, 0.153, 0.127, 0.040, 0.070, -0.137, 0.025, -0.153, -0.044, -0.178, -0.025, -0.108, 0.125, 0.053
     |];
